SDVRP instances/custom_instances/p02_2_split0.vrp
NAME:p02_2_split
BEST_KNOWN: 0
COMMENT: 0
DIMENSION: 406
CAPACITY: 140
EDGE_WEIGHT_FORMAT: FUNCTION
EDGE_WEIGHT_TYPE: EXACT_2D
NODE_COORD_SECTION
1 0.00000 0.00000
2 20 14
3 20 14
4 20 14
5 20 14
6 20 14
7 -33 -47
8 -33 -47
9 -33 -47
10 -34 -41
11 -34 -41
12 -34 -41
13 -34 -41
14 -34 -41
15 -34 -41
16 -20 44
17 -20 44
18 -20 44
19 -20 44
20 -17 17
21 -17 17
22 -17 17
23 -17 17
24 -17 17
25 -17 17
26 -17 17
27 -20 -45
28 -20 -45
29 -20 -45
30 -20 -45
31 -20 -45
32 -20 -45
33 -20 -45
34 -40 12
35 -40 12
36 -40 12
37 -40 12
38 -40 12
39 -40 12
40 -43 35
41 -43 35
42 -43 35
43 -43 35
44 -43 35
45 -43 35
46 -43 35
47 -45 0
48 -45 0
49 -45 0
50 -45 0
51 -45 0
52 -45 0
53 34 9
54 34 9
55 34 9
56 34 9
57 34 9
58 34 9
59 34 9
60 34 9
61 -2 19
62 -2 19
63 -2 19
64 -11 -22
65 -11 -22
66 -11 -22
67 -11 -22
68 -11 -22
69 -41 -38
70 -41 -38
71 -41 -38
72 -41 -38
73 -41 -38
74 -41 -38
75 16 41
76 16 41
77 16 41
78 16 41
79 16 41
80 16 41
81 -37 9
82 -37 9
83 -37 9
84 -37 9
85 -37 9
86 -37 9
87 -37 9
88 -18 26
89 -18 26
90 -18 26
91 -18 26
92 -18 26
93 -18 26
94 17 12
95 17 12
96 17 12
97 17 12
98 17 12
99 42 43
100 42 43
101 42 43
102 42 43
103 10 48
104 10 48
105 10 48
106 10 48
107 10 48
108 -6 19
109 -6 19
110 -6 19
111 -6 19
112 -6 19
113 -6 19
114 -2 -9
115 -2 -9
116 -2 -9
117 -2 -9
118 -2 -9
119 -2 -9
120 -43 -23
121 -43 -23
122 -43 -23
123 -43 -23
124 -43 -23
125 -43 -11
126 -43 -11
127 -43 -11
128 -43 -11
129 -43 -11
130 -43 -11
131 -43 -11
132 28 -31
133 28 -31
134 28 -31
135 28 -31
136 28 -31
137 -50 -10
138 -50 -10
139 -50 -10
140 -50 -10
141 -50 -10
142 -7 29
143 -7 29
144 -7 29
145 45 48
146 45 48
147 45 48
148 45 48
149 45 48
150 -26 -12
151 -26 -12
152 -26 -12
153 -26 -12
154 -26 -12
155 -26 -12
156 -26 -12
157 -12 14
158 -12 14
159 -12 14
160 41 -7
161 41 -7
162 -30 -16
163 -30 -16
164 -30 -16
165 -30 -16
166 -30 -16
167 -30 -16
168 -39 -4
169 -39 -4
170 -39 -4
171 -39 -4
172 -39 -4
173 -6 -23
174 -6 -23
175 -6 -23
176 -6 -23
177 -6 -23
178 -6 -23
179 -6 -23
180 -6 -23
181 47 39
182 47 39
183 47 39
184 47 39
185 47 39
186 47 39
187 47 39
188 47 39
189 -22 -13
190 -1 -31
191 -1 -31
192 24 30
193 24 30
194 24 30
195 24 30
196 24 30
197 -15 46
198 -15 46
199 -15 46
200 -15 46
201 -15 46
202 9 -47
203 9 -47
204 9 -47
205 9 -47
206 -46 47
207 -46 47
208 -46 47
209 -46 47
210 -46 47
211 -46 47
212 35 -17
213 35 -17
214 35 -17
215 35 -17
216 35 -17
217 -28 43
218 -28 43
219 -28 43
220 -28 43
221 -28 43
222 -28 43
223 -28 43
224 -28 43
225 -39 -41
226 -39 -41
227 -39 -41
228 -39 -41
229 -39 -41
230 2 -36
231 2 -36
232 2 -36
233 2 -36
234 2 -36
235 2 -36
236 -10 -48
237 -10 -48
238 -10 -48
239 -10 -48
240 -10 -48
241 -10 -48
242 -10 -48
243 -10 -48
244 -10 -48
245 -12 -21
246 -12 -21
247 -12 -21
248 -12 -21
249 -12 -21
250 -12 -21
251 11 -35
252 11 -35
253 11 -35
254 11 -35
255 11 -35
256 2 13
257 2 13
258 2 13
259 2 13
260 2 13
261 2 13
262 6 -3
263 6 -3
264 6 -3
265 6 -3
266 6 -3
267 6 -3
268 6 -3
269 -48 34
270 -48 34
271 -48 34
272 -48 34
273 -48 34
274 -48 34
275 -48 34
276 -48 34
277 43 -9
278 43 -9
279 43 -9
280 43 -9
281 43 -9
282 43 -9
283 -12 4
284 -12 4
285 -12 4
286 -12 4
287 -12 4
288 -50 32
289 -50 32
290 -50 32
291 -50 32
292 11 -2
293 11 -2
294 11 -2
295 42 -18
296 42 -18
297 42 -18
298 3 -39
299 3 -39
300 3 -39
301 3 -39
302 3 -39
303 3 -39
304 3 -39
305 3 -39
306 -42 -14
307 -42 -14
308 -42 -14
309 -42 -14
310 -42 -14
311 -24 36
312 -24 36
313 -24 36
314 -24 36
315 20 30
316 20 30
317 20 30
318 20 30
319 21 50
320 21 50
321 21 50
322 15 39
323 15 39
324 15 39
325 15 39
326 15 39
327 15 39
328 15 39
329 -2 -26
330 -2 -26
331 -2 -26
332 -2 -26
333 -2 -26
334 -2 -26
335 -2 -26
336 -29 -48
337 -29 -48
338 -29 -48
339 -29 -48
340 22 43
341 22 43
342 22 43
343 22 43
344 22 43
345 22 43
346 22 43
347 22 43
348 22 43
349 17 -11
350 17 -11
351 17 -11
352 17 -11
353 17 -11
354 17 -11
355 17 -11
356 24 -25
357 24 -25
358 24 -25
359 46 -24
360 46 -24
361 46 -24
362 46 -24
363 46 -24
364 46 -24
365 46 -24
366 46 -24
367 45 -42
368 45 -42
369 45 -42
370 45 -42
371 45 -42
372 45 -42
373 45 -42
374 45 -42
375 -22 -34
376 -22 -34
377 -22 -34
378 -22 -34
379 -22 -34
380 -22 -34
381 -22 -34
382 -22 -34
383 -33 -50
384 -33 -50
385 -33 -50
386 -33 -50
387 29 48
388 29 48
389 29 48
390 29 48
391 28 -10
392 28 -10
393 11 17
394 11 17
395 44 19
396 44 19
397 44 19
398 44 19
399 44 19
400 44 19
401 44 19
402 -33 0
403 -33 0
404 -33 0
405 -33 0
406 -33 0
DEMAND_SECTION
1 0
2 14
3 1
4 1
5 1
6 1
7 28
8 28
9 7
10 28
11 28
12 7
13 1
14 1
15 1
16 28
17 14
18 1
19 1
20 14
21 7
22 1
23 1
24 1
25 1
26 1
27 28
28 28
29 7
30 1
31 1
32 1
33 1
34 14
35 1
36 1
37 1
38 1
39 1
40 28
41 28
42 1
43 1
44 1
45 1
46 1
47 28
48 14
49 7
50 1
51 1
52 1
53 28
54 14
55 7
56 1
57 1
58 1
59 1
60 1
61 14
62 7
63 1
64 28
65 1
66 1
67 1
68 1
69 28
70 14
71 7
72 1
73 1
74 1
75 28
76 1
77 1
78 1
79 1
80 1
81 28
82 14
83 7
84 1
85 1
86 1
87 1
88 14
89 7
90 1
91 1
92 1
93 1
94 28
95 28
96 1
97 1
98 1
99 14
100 1
101 1
102 1
103 28
104 28
105 7
106 1
107 1
108 28
109 14
110 7
111 1
112 1
113 1
114 28
115 14
116 1
117 1
118 1
119 1
120 14
121 7
122 1
123 1
124 1
125 14
126 1
127 1
128 1
129 1
130 1
131 1
132 14
133 1
134 1
135 1
136 1
137 14
138 1
139 1
140 1
141 1
142 28
143 14
144 1
145 28
146 1
147 1
148 1
149 1
150 28
151 28
152 7
153 1
154 1
155 1
156 1
157 28
158 14
159 1
160 28
161 7
162 28
163 14
164 1
165 1
166 1
167 1
168 28
169 28
170 1
171 1
172 1
173 28
174 28
175 1
176 1
177 1
178 1
179 1
180 1
181 28
182 28
183 7
184 1
185 1
186 1
187 1
188 1
189 28
190 28
191 28
192 28
193 28
194 7
195 1
196 1
197 28
198 14
199 1
200 1
201 1
202 28
203 28
204 1
205 1
206 28
207 14
208 7
209 1
210 1
211 1
212 28
213 28
214 1
215 1
216 1
217 14
218 7
219 1
220 1
221 1
222 1
223 1
224 1
225 28
226 14
227 1
228 1
229 1
230 28
231 7
232 1
233 1
234 1
235 1
236 28
237 28
238 7
239 1
240 1
241 1
242 1
243 1
244 1
245 28
246 28
247 7
248 1
249 1
250 1
251 28
252 7
253 1
254 1
255 1
256 28
257 14
258 7
259 1
260 1
261 1
262 14
263 7
264 1
265 1
266 1
267 1
268 1
269 28
270 14
271 1
272 1
273 1
274 1
275 1
276 1
277 28
278 28
279 1
280 1
281 1
282 1
283 28
284 14
285 7
286 1
287 1
288 14
289 7
290 1
291 1
292 28
293 14
294 1
295 28
296 14
297 1
298 28
299 28
300 7
301 1
302 1
303 1
304 1
305 1
306 14
307 1
308 1
309 1
310 1
311 28
312 1
313 1
314 1
315 14
316 1
317 1
318 1
319 28
320 7
321 1
322 28
323 28
324 7
325 1
326 1
327 1
328 1
329 14
330 1
331 1
332 1
333 1
334 1
335 1
336 28
337 7
338 1
339 1
340 28
341 14
342 7
343 1
344 1
345 1
346 1
347 1
348 1
349 14
350 7
351 1
352 1
353 1
354 1
355 1
356 28
357 14
358 1
359 28
360 28
361 7
362 1
363 1
364 1
365 1
366 1
367 14
368 7
369 1
370 1
371 1
372 1
373 1
374 1
375 14
376 7
377 1
378 1
379 1
380 1
381 1
382 1
383 28
384 1
385 1
386 1
387 28
388 1
389 1
390 1
391 28
392 14
393 28
394 14
395 28
396 7
397 1
398 1
399 1
400 1
401 1
402 28
403 28
404 7
405 1
406 1
DEPOT_SECTION
1
-1
EOF