SDVRP instances/custom_instances/p02_2_split0.sol
405 -2 4 3 1 5 180 187 186 182 185 183 181 184 144 145 146 147 148 98 100 101 99 -6 7 8 383 385 382 384 336 338 337 335 -18 15 16 17 198 197 199 200 196 141 143 142 -21 25 24 22 205 208 210 207 209 206 217 220 219 222 216 223 218 221 311 313 312 310 91 87 90 88 89 92 -31 26 29 32 30 27 28 235 241 237 238 242 240 239 236 243 118 116 117 115 -39 41 42 40 44 43 45 274 268 272 275 270 271 273 269 287 290 289 288 -62 61 60 102 105 103 106 104 76 77 75 79 78 74 323 327 326 325 -71 73 72 69 70 68 123 121 120 122 119 136 138 140 137 139 124 127 130 125 129 126 128 308 309 307 305 306 154 -95 96 97 93 94 392 255 256 260 259 257 258 -110 112 111 108 109 107 20 23 19 157 158 156 284 283 -114 113 63 65 67 66 64 245 247 246 244 248 249 -149 151 153 152 150 155 161 164 163 165 162 166 188 -159 160 278 277 279 276 280 281 390 391 -168 170 169 171 167 47 50 51 48 49 46 404 401 -174 176 175 177 179 173 172 178 189 190 332 328 334 329 330 331 333 -201 202 203 204 300 302 303 297 301 299 304 298 -225 228 227 226 224 9 11 13 14 10 12 374 378 375 381 376 380 379 377 -234 233 230 231 229 232 251 253 254 252 250 131 135 134 132 133 357 356 355 -264 265 267 263 266 262 261 214 211 213 215 212 352 353 350 354 348 351 349 -285 282 286 33 36 34 35 37 38 81 84 85 80 83 82 86 402 403 405 -291 292 293 53 59 58 56 57 55 54 52 398 400 397 394 395 396 399 -294 296 295 364 359 360 362 358 361 363 365 366 371 370 373 372 368 367 369 -314 315 317 316 388 387 386 389 319 320 318 343 339 346 347 340 341 342 345 344 -321 322 324 194 193 195 192 191 393 0 





OBJ=
2374.983
BEST_KNOWN=
0.000